(set-logic ALL)
(declare-const k Int)
(declare-fun s () (_ BitVec k))
(declare-fun t () (_ BitVec k))
(assert (not (distinct (bvmul t (bvshl s (bvshl (_ bv1 k) (_ bv1 k)))) (bvmul s (bvshl t (bvshl (_ bv1 k) (_ bv1 k)))))))
(check-sat)
